<number of tasks>
20

<cycle time>
1000

<order strength>
0,205


<task times>
1 69
2 150
3 243
4 147
5 129
6 84
7 56
8 247
9 347
10 106
11 131
12 213
13 181
14 151
15 39
16 136
17 53
18 94
19 145
20 90

<precedence relations>
1,6
1,8
1,9
2,5
4,7
6,10
6,11
7,12
10,14
10,16
11,13
12,15
15,17
15,19
16,18
16,20

<end>
